p cnf 13 54
c at least one value
1 2 3 0
4 5 6 0
7 8 9 0
10 11 0
12 13 0
c at most one value
-1 -2 0
-1 -3 0
-2 -3 0
-4 -5 0
-4 -6 0
-5 -6 0
-7 -8 0
-7 -9 0
-8 -9 0
-10 -11 0
-12 -13 0
c graceful clauses
-1 -4 -10 0
-1 -4 -11 0
-1 -5 -11 0
-1 -6 -10 0
-2 -4 -11 0
-2 -5 -10 0
-2 -5 -11 0
-2 -6 -11 0
-3 -4 -10 0
-3 -5 -11 0
-3 -6 -10 0
-3 -6 -11 0
-4 -7 -12 0
-4 -7 -13 0
-4 -8 -13 0
-4 -9 -12 0
-5 -7 -13 0
-5 -8 -12 0
-5 -8 -13 0
-5 -9 -13 0
-6 -7 -12 0
-6 -8 -13 0
-6 -9 -12 0
-6 -9 -13 0
c create alldiff
-1 -4 0
-2 -5 0
-3 -6 0
-1 -7 0
-2 -8 0
-3 -9 0
-4 -7 0
-5 -8 0
-6 -9 0
c create alldiff
-10 -12 0
-11 -13 0
c break symmetry[[1, 2, 3], [7, 8, 9]]
-2 -7 0
-3 -7 0
-3 -8 0
